qe/outputs/qe/qe_queries/T=5,eliminate=[I_0,I_1,I_2,I_3,I_4,L_2,L_3,L_4,B].smt2
; benchmark generated from python API
(set-info :status unknown)
(declare-fun L_1 () Real)
(declare-fun S_3 () Real)
(declare-fun A_3 () Real)
(declare-fun C () Real)
(declare-fun S_4 () Real)
(declare-fun S_2 () Real)
(declare-fun A_1 () Real)
(declare-fun A_2 () Real)
(declare-fun S_1 () Real)
(declare-fun A_4 () Real)
(declare-fun L_0 () Real)
(declare-fun A_0 () Real)
(declare-fun S_0 () Real)
(assert
 (let (($x4069 (<= (+ (* (- 1.0) A_3) S_4 A_2 (* (- 1.0) S_3) (* (- 1.0) C)) 0.0)))
 (let (($x1770 (<= (+ (* (- 1.0) L_1) A_1 (* (- 1.0) S_3) C) 0.0)))
 (let (($x1575 (<= (+ (* (- 1.0) L_1) A_1 (* (- 1.0) C) L_0 (* (- 1.0) A_0)) 0.0)))
 (let (($x1507 (not $x1575)))
 (let ((?x790 (* (- 1.0) A_2)))
 (let ((?x742 (* (- 1.0) L_1)))
 (let ((?x1300 (* (- 1.0) S_1)))
 (let ((?x733 (* (- 1.0) L_0)))
 (let ((?x1306 (* 2.0 A_0)))
 (let ((?x947 (* 2.0 C)))
 (let ((?x1289 (* (- 1.0) S_4)))
 (let (($x3270 (<= (+ A_3 ?x1289 ?x742) 0.0)))
 (let (($x1252 (<= (+ ?x1289 A_0 (* 3.0 C) ?x733) 0.0)))
 (let (($x10923 (or $x1252 $x1575 (<= (+ A_2 C (* (- 1.0) A_3)) 0.0) $x3270 (<= (+ A_3 ?x1289 ?x947 ?x1306 ?x733 ?x1300 ?x742 ?x790) 0.0))))
 (let (($x2601 (<= (+ ?x742 A_1 ?x947 ?x1289) 0.0)))
 (let (($x1976 (<= (+ A_2 C ?x1289 ?x742) 0.0)))
 (let (($x1562 (<= (+ A_3 (* (- 1.0) A_4)) 0.0)))
 (let (($x1778 (<= (+ A_1 C ?x790) 0.0)))
 (let (($x1751 (not $x1778)))
 (let (($x1745 (<= (+ A_3 ?x1289 (* (- 2.0) L_1) A_1 C ?x1300 A_0 ?x790) 0.0)))
 (let (($x1499 (<= (+ ?x742 ?x1300 A_0) 0.0)))
 (let (($x1278 (<= (+ A_0 ?x947 ?x733 (* (- 1.0) S_3)) 0.0)))
 (let (($x4949 (<= (+ A_3 S_4 (* (- 1.0) A_4) (* (- 1.0) S_3) (* (- 1.0) C)) 0.0)))
 (let (($x1328 (<= (+ A_0 C ?x733 L_1 (* (- 1.0) A_1)) 0.0)))
 (let ((?x1318 (* (- 2.0) A_0)))
 (let ((?x1290 (* (- 3.0) C)))
 (let ((?x753 (* (- 1.0) A_3)))
 (let (($x4093 (<= (+ ?x753 S_4 A_2 L_1 (* (- 1.0) A_1) (* (- 2.0) C)) 0.0)))
 (let (($x672 (= ?x742 ?x733)))
 (let (($x19608 (or $x672 $x4093 (<= (+ ?x753 S_4 ?x1290 ?x1318 L_0 S_0 L_1 A_2) 0.0))))
 (let ((?x1297 (* (- 2.0) C)))
 (let ((?x838 (* (- 1.0) A_4)))
 (let (($x1510 (<= (+ S_4 ?x838 A_2 L_1 (* (- 1.0) A_1) (* (- 1.0) C)) 0.0)))
 (let (($x19672 (or $x672 $x1510 (<= (+ S_4 ?x838 ?x1318 ?x1297 L_0 S_0 L_1 A_2) 0.0))))
 (let ((?x784 (* (- 1.0) A_0)))
 (let ((?x881 (* (- 1.0) A_1)))
 (let ((?x1722 (* 2.0 L_1)))
 (let (($x1579 (<= (+ A_3 S_4 ?x838 L_1 ?x881 ?x1297) 0.0)))
 (let (($x11991 (or $x672 $x1579 (<= (+ ?x1722 ?x881 ?x1297 S_4 ?x838 S_0 ?x784 A_3) 0.0))))
 (let (($x1934 (<= (+ A_2 (* (- 1.0) S_3) ?x742) 0.0)))
 (let (($x1330 (<= (+ A_0 ?x947 ?x733 L_1 ?x790) 0.0)))
 (let (($x2272 (<= (+ ?x790 (* (- 1.0) C) S_4 ?x838 ?x1722 S_0 ?x784 A_3) 0.0)))
 (let (($x19226 (or $x1507 (<= (+ L_1 ?x733) 0.0) $x2272 (<= (+ L_1 (* (- 1.0) C) S_4 ?x838 ?x790 A_3) 0.0))))
 (let (($x6161 (<= (+ S_4 ?x838 ?x1722 ?x881 (* (- 1.0) C) S_0 ?x784 A_2) 0.0)))
 (let (($x11915 (or $x672 $x4093 (<= (+ ?x753 S_4 ?x1297 ?x1722 ?x881 S_0 ?x784 A_2) 0.0))))
 (let (($x3104 (<= (+ ?x753 A_2 S_3 L_1 ?x881 (* (- 1.0) C)) 0.0)))
 (let (($x19396 (or $x672 $x3104 (<= (+ ?x753 ?x1297 ?x1318 S_3 L_0 S_0 L_1 A_2) 0.0))))
 (let (($x4396 (<= (+ ?x753 (* (- 1.0) C) ?x1722 ?x881 S_3 S_0 ?x784 A_2) 0.0)))
 (let (($x11588 (or $x672 $x1579 (<= (+ S_4 ?x1318 ?x1290 L_0 ?x838 S_0 L_1 A_3) 0.0))))
 (let (($x19370 (or $x1252 $x1575 $x1976 $x3270 (<= (+ A_3 ?x1289 C ?x742 A_1 ?x790) 0.0))))
 (let (($x9506 (or $x672 $x1575 $x2272 (<= (+ ?x790 S_4 ?x838 A_0 ?x733 ?x1722 ?x881 A_3) 0.0))))
 (let (($x1602 (or (<= (+ A_0 C ?x733 (* (- 1.0) S_2)) 0.0) (<= (+ ?x742 A_1 (* (- 1.0) S_2)) 0.0))))
 (and (<= ?x742 ?x733) $x1602 (or $x1278 (<= (+ S_4 ?x838 A_2 (* (- 1.0) S_3)) 0.0) $x1770) (or $x1278 $x1575 $x1934) $x9506 (or $x1328 $x1770 $x4069) (or $x1328 $x1770 (<= (+ ?x753 A_2) 0.0)) (<= (+ S_4 ?x1297 (* (- 1.0) S_3)) 0.0) (or $x1328 $x1770 $x1934 $x4949) (or $x1330 $x1499 $x1770 $x1934) $x19370 $x11588 (or $x672 $x3104 $x4396) $x19396 $x11915 (or $x672 $x1510 $x6161) (or $x1252 (not (<= (+ A_3 ?x790 (* (- 1.0) C)) 0.0)) $x1562 $x2601) $x19226 (or $x1330 $x1778 $x1934 $x4949) (or $x1499 $x1507 $x1778 $x1976 $x3270) $x11991 $x19672 $x19608 (or $x1328 $x1562 $x1976 $x2601) (or $x1507 $x1751 $x1770 $x4949) (or $x1278 $x1499 $x1751 $x1770) (or $x1507 $x1770 (<= (+ ?x753 A_2) 0.0)) (or $x1499 $x1507 $x1745 $x1751 $x2601 $x3270) (or $x1507 $x1562 $x1976 $x2601) $x10923 (or $x1507 $x1770 $x4069) (<= (+ ?x784 L_0 S_0) 0.0) (<= (+ ?x784 (* (- 1.0) C) L_0 S_1) 0.0) (<= (+ ?x1300 S_0) 0.0) (<= (+ ?x784 ?x1297 L_0 S_2) 0.0) (<= (+ ?x784 ?x1290 L_0 S_3) 0.0) (<= (+ S_4 ?x784 (* (- 4.0) C) L_0) 0.0) (<= (+ S_4 ?x838 L_1) 0.0) (<= (+ L_1 ?x881 S_1) 0.0) (<= (+ L_1 ?x881 (* (- 1.0) C) S_2) 0.0) (<= (+ ?x790 L_1 S_2) 0.0) (<= (+ ?x790 (* (- 1.0) C) S_3 L_1) 0.0) (<= (+ ?x790 ?x1297 S_4 L_1) 0.0) (<= (+ S_4 L_1 ?x881 ?x1290) 0.0) (<= (+ L_1 ?x881 ?x1297 S_3) 0.0) (<= (+ (* (- 1.0) S_3) S_2) 0.0) (<= (+ ?x1289 S_3) 0.0) (<= (+ ?x753 S_4 L_1 (* (- 1.0) C)) 0.0) (<= (+ ?x753 S_3 L_1) 0.0)))))))))))))))))))))))))))))))))))))))))))))))))))))))
(check-sat)
